c nIsolatedPIs 0
c maxPI 32
p cnf 128 289
c gate 33 -16 -32 0
-16 -33 0
-32 -33 0
16 32 33 0
c gate 34 16 32 0
16 -34 0
32 -34 0
-16 -32 34 0
c gate 35 -33 -34 0
-33 -35 0
-34 -35 0
33 34 35 0
c gate 36 15 31 0
15 -36 0
31 -36 0
-15 -31 36 0
c gate 37 -15 -31 0
-15 -37 0
-31 -37 0
15 31 37 0
c gate 38 -14 -30 0
-14 -38 0
-30 -38 0
14 30 38 0
c gate 39 -37 -38 0
-37 -39 0
-38 -39 0
37 38 39 0
c gate 40 14 30 0
14 -40 0
30 -40 0
-14 -30 40 0
c gate 41 13 29 0
13 -41 0
29 -41 0
-13 -29 41 0
c gate 42 -40 -41 0
-40 -42 0
-41 -42 0
40 41 42 0
c gate 43 -11 -27 0
-11 -43 0
-27 -43 0
11 27 43 0
c gate 44 -10 -26 0
-10 -44 0
-26 -44 0
10 26 44 0
c gate 45 -43 -44 0
-43 -45 0
-44 -45 0
43 44 45 0
c gate 46 9 25 0
9 -46 0
25 -46 0
-9 -25 46 0
c gate 47 10 26 0
10 -47 0
26 -47 0
-10 -26 47 0
c gate 48 -46 -47 0
-46 -48 0
-47 -48 0
46 47 48 0
c gate 49 -8 -24 0
-8 -49 0
-24 -49 0
8 24 49 0
c gate 50 -9 -25 0
-9 -50 0
-25 -50 0
9 25 50 0
c gate 51 -49 -50 0
-49 -51 0
-50 -51 0
49 50 51 0
c gate 52 8 24 0
8 -52 0
24 -52 0
-8 -24 52 0
c gate 53 -49 -52 0
-49 -53 0
-52 -53 0
49 52 53 0
c gate 54 7 23 0
7 -54 0
23 -54 0
-7 -23 54 0
c gate 55 -7 -23 0
-7 -55 0
-23 -55 0
7 23 55 0
c gate 56 -6 -22 0
-6 -56 0
-22 -56 0
6 22 56 0
c gate 57 6 22 0
6 -57 0
22 -57 0
-6 -22 57 0
c gate 58 -56 -57 0
-56 -58 0
-57 -58 0
56 57 58 0
c gate 59 -5 -21 0
-5 -59 0
-21 -59 0
5 21 59 0
c gate 60 -4 -20 0
-4 -60 0
-20 -60 0
4 20 60 0
c gate 61 4 20 0
4 -61 0
20 -61 0
-4 -20 61 0
c gate 62 -60 -61 0
-60 -62 0
-61 -62 0
60 61 62 0
c gate 63 3 19 0
3 -63 0
19 -63 0
-3 -19 63 0
c gate 64 2 18 0
2 -64 0
18 -64 0
-2 -18 64 0
c gate 65 -2 -18 0
-2 -65 0
-18 -65 0
2 18 65 0
c gate 66 1 17 0
1 -66 0
17 -66 0
-1 -17 66 0
c gate 67 -65 66 0
-65 -67 0
66 -67 0
65 -66 67 0
c gate 68 -64 -67 0
-64 -68 0
-67 -68 0
64 67 68 0
c gate 69 -3 -19 0
-3 -69 0
-19 -69 0
3 19 69 0
c gate 70 -68 -69 0
-68 -70 0
-69 -70 0
68 69 70 0
c gate 71 -63 -70 0
-63 -71 0
-70 -71 0
63 70 71 0
c gate 72 62 71 0
62 -72 0
71 -72 0
-62 -71 72 0
c gate 73 -60 -72 0
-60 -73 0
-72 -73 0
60 72 73 0
c gate 74 5 21 0
5 -74 0
21 -74 0
-5 -21 74 0
c gate 75 -59 -74 0
-59 -75 0
-74 -75 0
59 74 75 0
c gate 76 -73 75 0
-73 -76 0
75 -76 0
73 -75 76 0
c gate 77 -59 -76 0
-59 -77 0
-76 -77 0
59 76 77 0
c gate 78 58 -77 0
58 -78 0
-77 -78 0
-58 77 78 0
c gate 79 -56 -78 0
-56 -79 0
-78 -79 0
56 78 79 0
c gate 80 -55 79 0
-55 -80 0
79 -80 0
55 -79 80 0
c gate 81 -54 -80 0
-54 -81 0
-80 -81 0
54 80 81 0
c gate 82 53 81 0
53 -82 0
81 -82 0
-53 -81 82 0
c gate 83 51 -82 0
51 -83 0
-82 -83 0
-51 82 83 0
c gate 84 48 -83 0
48 -84 0
-83 -84 0
-48 83 84 0
c gate 85 45 -84 0
45 -85 0
-84 -85 0
-45 84 85 0
c gate 86 11 27 0
11 -86 0
27 -86 0
-11 -27 86 0
c gate 87 12 28 0
12 -87 0
28 -87 0
-12 -28 87 0
c gate 88 -86 -87 0
-86 -88 0
-87 -88 0
86 87 88 0
c gate 89 -85 88 0
-85 -89 0
88 -89 0
85 -88 89 0
c gate 90 -13 -29 0
-13 -90 0
-29 -90 0
13 29 90 0
c gate 91 -12 -28 0
-12 -91 0
-28 -91 0
12 28 91 0
c gate 92 -90 -91 0
-90 -92 0
-91 -92 0
90 91 92 0
c gate 93 -89 92 0
-89 -93 0
92 -93 0
89 -92 93 0
c gate 94 42 -93 0
42 -94 0
-93 -94 0
-42 93 94 0
c gate 95 39 -94 0
39 -95 0
-94 -95 0
-39 94 95 0
c gate 96 -36 -95 0
-36 -96 0
-95 -96 0
36 95 96 0
c gate 97 -35 96 0
-35 -97 0
96 -97 0
35 -96 97 0
c gate 98 35 -96 0
35 -98 0
-96 -98 0
-35 96 98 0
c gate 99 -97 -98 0
-97 -99 0
-98 -99 0
97 98 99 0
c gate 100 45 -86 0
45 -100 0
-86 -100 0
-45 86 100 0
c gate 101 -54 -55 0
-54 -101 0
-55 -101 0
54 55 101 0
c gate 102 18 -68 0
18 -102 0
-68 -102 0
-18 68 102 0
c gate 103 -63 -102 0
-63 -103 0
-102 -103 0
63 102 103 0
c gate 104 62 -103 0
62 -104 0
-103 -104 0
-62 103 104 0
c gate 105 -61 -104 0
-61 -105 0
-104 -105 0
61 104 105 0
c gate 106 -59 -105 0
-59 -106 0
-105 -106 0
59 105 106 0
c gate 107 -74 -106 0
-74 -107 0
-106 -107 0
74 106 107 0
c gate 108 58 -107 0
58 -108 0
-107 -108 0
-58 107 108 0
c gate 109 -57 -108 0
-57 -109 0
-108 -109 0
57 108 109 0
c gate 110 101 -109 0
101 -110 0
-109 -110 0
-101 109 110 0
c gate 111 -54 -110 0
-54 -111 0
-110 -111 0
54 110 111 0
c gate 112 -52 111 0
-52 -112 0
111 -112 0
52 -111 112 0
c gate 113 51 -112 0
51 -113 0
-112 -113 0
-51 112 113 0
c gate 114 48 -113 0
48 -114 0
-113 -114 0
-48 113 114 0
c gate 115 100 -114 0
100 -115 0
-114 -115 0
-100 114 115 0
c gate 116 88 -115 0
88 -116 0
-115 -116 0
-88 115 116 0
c gate 117 92 -116 0
92 -117 0
-116 -117 0
-92 116 117 0
c gate 118 42 -117 0
42 -118 0
-117 -118 0
-42 117 118 0
c gate 119 -38 -118 0
-38 -119 0
-118 -119 0
38 118 119 0
c gate 120 -36 -119 0
-36 -120 0
-119 -120 0
36 119 120 0
c gate 121 -37 -120 0
-37 -121 0
-120 -121 0
37 120 121 0
c gate 122 -35 121 0
-35 -122 0
121 -122 0
35 -121 122 0
c gate 123 35 -121 0
35 -123 0
-121 -123 0
-35 121 123 0
c gate 124 -122 -123 0
-122 -124 0
-123 -124 0
122 123 124 0
c gate 125 -99 -124 0
-99 -125 0
-124 -125 0
99 124 125 0
c gate 126 99 124 0
99 -126 0
124 -126 0
-99 -124 126 0
c gate 127 -125 -126 0
-125 -127 0
-126 -127 0
125 126 127 0
c gate 128 35 -127 0
35 -128 0
-127 -128 0
-35 127 128 0
c PO
128 0
